Version identifier: 20.1.0.0 | 2020-11-10 | 9bedb6d68
CPXPARAM_Threads                                 1
CPXPARAM_TimeLimit                               7200
CPXPARAM_MIP_Tolerances_MIPGap                   0
Generic callback                                 0x60
1 of 1 MIP starts provided solutions.
MIP start 'm1' defined initial solution with objective 1329.3104.
Tried aggregator 1 time.
Reduced MIP has 1 rows, 501 columns, and 500 nonzeros.
Reduced MIP has 500 binaries, 0 generals, 0 SOSs, and 0 indicators.
Presolve time = 0.00 sec. (0.15 ticks)
Probing time = 0.00 sec. (0.05 ticks)
Tried aggregator 1 time.
Reduced MIP has 1 rows, 501 columns, and 500 nonzeros.
Reduced MIP has 500 binaries, 0 generals, 0 SOSs, and 0 indicators.
Presolve time = 0.00 sec. (0.15 ticks)
Probing time = 0.00 sec. (0.05 ticks)
MIP emphasis: balance optimality and feasibility.
MIP search method: dynamic search.
Parallel mode: none, using 1 thread.
Root relaxation solution time = 0.00 sec. (0.10 ticks)

        Nodes                                         Cuts/
   Node  Left     Objective  IInf  Best Integer    Best Bound    ItCnt     Gap

*     0+    0                         1329.3104     4368.0000           228.59%
      0     0     1702.6914     2     1329.3104     4368.0000        0  228.59%
      0     0     1578.1380     3     1329.3104 UserPurge2: 1        3   18.72%
      0     0     1552.2335     5     1329.3104 UserPurge2: 1        7   16.77%
      0     0     1541.3595     7     1329.3104 UserPurge2: 1       14   15.95%
      0     0     1518.4150     9     1329.3104 UserPurge2: 1       27   14.23%
      0     0     1470.2925     7     1329.3104 UserPurge2: 1       58   10.61%
      0     0     1457.9781     8     1329.3104 UserPurge2: 1       67    9.68%
      0     0     1417.5872     6     1329.3104 UserPurge2: 1      101    6.64%
      0     0     1408.0110     8     1329.3104 UserPurge2: 1      108    5.92%
      0     0     1404.1416     8     1329.3104 UserPurge2: 1      119    5.63%
      0     0     1400.4525     8     1329.3104 UserPurge2: 1      128    5.35%
      0     0     1399.0966     7     1329.3104 UserPurge2: 1      137    5.25%
      0     0     1398.7715     8     1329.3104 UserPurge2: 1      140    5.23%
      0     0     1397.0688     9     1329.3104 UserPurge2: 1      147    5.10%
      0     0     1386.1480     7     1329.3104 UserPurge2: 1      168    4.28%
      0     0     1385.9655     8     1329.3104 UserPurge1: 1      171    4.26%
      0     0     1382.8479     8     1329.3104 UserPurge2: 1      181    4.03%
      0     0     1380.6679     9     1329.3104 UserPurge2: 1      187    3.86%
      0     0     1375.7006     7     1329.3104 UserPurge2: 1      201    3.49%
      0     0     1375.3912     7     1329.3104 UserPurge2: 1      204    3.47%
      0     0     1372.8691     8     1329.3104 UserPurge2: 1      217    3.28%
      0     0     1372.3879     9     1329.3104 UserPurge2: 1      222    3.24%
      0     0     1371.6567     8     1329.3104 UserPurge2: 1      238    3.19%
      0     0     1370.7095    10     1329.3104 UserPurge2: 1      244    3.11%
      0     0     1370.6350    11     1329.3104 UserPurge2: 1      250    3.11%
      0     0     1370.0602    10     1329.3104 UserPurge2: 1      261    3.07%
      0     0     1369.8460    10     1329.3104 UserPurge2: 1      272    3.05%
      0     0     1369.7785    11     1329.3104 UserPurge2: 1      277    3.04%
      0     0     1367.5678    10     1329.3104 UserPurge2: 1      299    2.88%
      0     0     1366.4661    10     1329.3104 UserPurge2: 1      310    2.80%
      0     0     1365.5678    11     1329.3104 UserPurge2: 1      317    2.73%
      0     0     1364.4274    10     1329.3104 UserPurge2: 1      332    2.64%
      0     0     1363.4727    11     1329.3104 UserPurge2: 1      344    2.57%
      0     0     1362.1295    10     1329.3104 UserPurge2: 1      360    2.47%
      0     0     1360.5833    11     1329.3104 UserPurge2: 1      376    2.35%
      0     0     1360.1104    11     1329.3104 UserPurge2: 1      384    2.32%
      0     0     1357.9687    10     1329.3104 UserPurge2: 1      405    2.16%
      0     0     1356.6672    11     1329.3104 UserPurge2: 1      416    2.06%
      0     0     1356.1173    12     1329.3104 UserPurge2: 1      424    2.02%
      0     0     1354.8683    12     1329.3104 UserPurge2: 1      437    1.92%
      0     0     1354.8324    13     1329.3104 UserPurge2: 1      441    1.92%
      0     0     1354.3021    13     1329.3104 UserPurge2: 1      453    1.88%
      0     0     1352.9607    12     1329.3104 UserPurge2: 1      482    1.78%
      0     0     1352.0907    12     1329.3104 UserPurge2: 1      499    1.71%
      0     0     1351.0953    12     1329.3104 UserPurge2: 1      519    1.64%
      0     0     1350.3946    12     1329.3104 UserPurge2: 1      539    1.59%
      0     0     1350.2852    13     1329.3104 UserPurge2: 1      543    1.58%
      0     0     1350.1139    14     1329.3104 UserPurge2: 1      549    1.56%
      0     0     1349.8537    15     1329.3104 UserPurge2: 1      559    1.55%
      0     0     1349.4323    14     1329.3104 UserPurge2: 1      571    1.51%
      0     0     1348.8259    15     1329.3104 UserPurge2: 1      585    1.47%
      0     0     1348.4293    16     1329.3104 UserPurge2: 1      599    1.44%
      0     0     1347.7371    16     1329.3104 UserPurge2: 1      619    1.39%

Repeating presolve.
Tried aggregator 1 time.
MIP Presolve eliminated 0 rows and 127 columns.
Reduced MIP has 1 rows, 374 columns, and 373 nonzeros.
Reduced MIP has 373 binaries, 0 generals, 0 SOSs, and 0 indicators.
Presolve time = 0.00 sec. (0.14 ticks)
Probing time = 0.00 sec. (0.04 ticks)
Tried aggregator 1 time.
Reduced MIP has 1 rows, 374 columns, and 373 nonzeros.
Reduced MIP has 373 binaries, 0 generals, 0 SOSs, and 0 indicators.
Presolve time = 0.00 sec. (0.11 ticks)
Represolve time = 0.00 sec. (3.51 ticks)
Probing time = 0.00 sec. (0.04 ticks)
MIP emphasis: balance optimality and feasibility.
MIP search method: dynamic search.
Parallel mode: none, using 1 thread.
Root relaxation solution time = 0.00 sec. (2.57 ticks)

        Nodes                                         Cuts/
   Node  Left     Objective  IInf  Best Integer    Best Bound    ItCnt     Gap

*     0+    0                         1329.3104     1347.7371             1.39%
      0     0     1347.7371    16     1329.3104     1347.7371      673    1.39%
      0     0     1347.0112    16     1329.3104 UserPurge2: 1      691    1.33%
      0     0     1346.2301    16     1329.3104 UserPurge2: 1      713    1.27%
      0     0     1345.5801    16     1329.3104 UserPurge2: 1      729    1.22%
*     0+    0                         1331.3051     1345.5801             1.07%
      0     0     1345.3530    17     1331.3051 UserPurge2: 1      740    1.06%
      0     0     1344.7567    16     1331.3051 UserPurge2: 1      766    1.01%
      0     0     1344.2878    16     1331.3051 UserPurge2: 1      779    0.98%
      0     0     1344.1629    15     1331.3051 UserPurge2: 1      788    0.97%
      0     0     1344.0399    15     1331.3051 UserPurge2: 1      797    0.96%
      0     0     1343.9339    16     1331.3051 UserPurge2: 1      804    0.95%
      0     0     1343.4150    15     1331.3051 UserPurge2: 1      824    0.91%
      0     0     1343.1381    16     1331.3051 UserPurge2: 1      834    0.89%
      0     0     1342.9927    17     1331.3051 UserPurge2: 1      840    0.88%
      0     0     1342.7196    16     1331.3051 UserPurge2: 1      861    0.86%
      0     0     1342.5388    17     1331.3051 UserPurge2: 1      875    0.84%
      0     0     1342.2289    17     1331.3051 UserPurge2: 1      893    0.82%
      0     0     1341.8873    17     1331.3051 UserPurge2: 1      913    0.79%
      0     0     1341.4338    16     1331.3051 UserPurge2: 1      927    0.76%
      0     0     1341.0449    16     1331.3051 UserPurge2: 1      944    0.73%
      0     0     1340.9712    16     1331.3051 UserPurge2: 1      950    0.73%
      0     0     1340.9006    17     1331.3051 UserPurge2: 1      954    0.72%
      0     0     1340.8300    18     1331.3051 UserPurge2: 1      962    0.72%
      0     0     1340.5943    19     1331.3051 UserPurge2: 1      972    0.70%
      0     0     1340.3687    20     1331.3051 UserPurge2: 1      984    0.68%
      0     0     1340.3312    21     1331.3051 UserPurge2: 1      993    0.68%
      0     0     1339.9431    19     1331.3051 UserPurge2: 1     1015    0.65%
      0     0     1339.7684    18     1331.3051 UserPurge2: 1     1031    0.64%
      0     0     1339.5216    17     1331.3051 UserPurge2: 1     1049    0.62%
      0     0     1339.4320    18     1331.3051 UserPurge2: 1     1062    0.61%
      0     0     1339.2472    18     1331.3051 UserPurge2: 1     1082    0.60%
      0     0     1339.0933    18     1331.3051 UserPurge2: 1     1102    0.59%
      0     0     1338.8889    19     1331.3051 UserPurge2: 1     1119    0.57%
      0     0     1338.5936    19     1331.3051 UserPurge2: 1     1141    0.55%
      0     0     1338.5265    19     1331.3051 UserPurge2: 1     1156    0.54%
      0     2     1338.5265    19     1331.3051     1338.5257     1156    0.54%
Elapsed time = 10.07 sec. (160.72 ticks, tree = 0.01 MB, solutions = 2)
      2     2     1331.8092    25     1331.3051     1331.8092     4570    0.04%
*     3     1      integral     0     1331.4856     1331.8092     6020    0.02%

User cuts applied:  466

Root node processing (before b&c):
  Real time             =   10.07 sec. (161.22 ticks)
Sequential b&c:
  Real time             =   13.74 sec. (705.68 ticks)
                          ------------
Total (root+branch&cut) =   23.81 sec. (866.90 ticks)
@Parameters: 
is_S_cut                                true
is_add_all_yinF                         true
is_start_value                          true
is_usercut                              true
is_visualization                        false
uc_only_rootnode                        false

data                                    Qi
fn                                      data/Qi/instance_800_500.csv
mode                                    NewSubmodular
solver                                  cplex

p                                       5
r                                       50

EPS                                     1.0e-06
EPS_vio                                 1.0e-04
beta                                    0.10
gap                                     0.00
nodelimit                               Inf
timelimit                               7200.00


@PrintInfos
ItCnt: 6176
Current gap: 0.00 %
Termination Status: OPTIMAL
Primal Status: FEASIBLE_POINT
Solve Time: 23.81 sec
Objective Value: 1331.485623
Number of Nodes:      5

CutInfo: [phase] num / time (sec) 
ZLP             [phase1]     0 / 0.00 [rLC]     0 / 0.00 [rUC]     0 / 0.00 [sLC]     0 / 0.00 [sUC]     0 / 0.00 
OldSubmodular   [phase1]     0 / 0.00 [rLC]     0 / 0.00 [rUC]     0 / 0.00 [sLC]     0 / 0.00 [sUC]     0 / 0.00 
NewSubmodular   [phase1]     0 / 0.00 [rLC]    33 / 4.05 [rUC]   119 / 3.73 [sLC]     1 / 0.80 [sUC]   442 / 12.33 
PMP             [phase1]     0 / 0.00 [rLC]     4 / 1.79 [rUC]     0 / 0.00 [sLC]     2 / 0.77 [sUC]     0 / 0.00 
Separation Round: [phase1] 0  [rLC] 32  [rUC] 87  [sLC] 2  [sUC] 194
Root Best Bound 1331.809230
Root Best Integer: 1331.305110
Best Bound: 1331.485623
Best Integer: 1331.485623

